RAW/CMTX/fspd-long/CMT14X.vrp_seed-8.out
821.7458258	0.363	294.491
