RAW/CMTX/fspd-long/CMT14X.vrp_seed-8.sol
Route #1: 20 24 25 27 29 30 28 26 22 21
Route #2: 90 87 86 83 82 84 85 88 89 91
Route #3: 10 12 14 16 15 19 18 17 13 23
Route #4: 5 3 7 8 11 9 6 4 1 75
Route #5: 98 96 95 94 92 93 97 100 99 2
Route #6: 67 65 62 74 72 61 64 68 66 69
Route #7: 57 55 54 53 56 58 60 59 40 41
Route #8: 43 42 44 45 46 48 51 50 49 47
Route #9: 32 33 34 36 39 38 37 35 31 52
Route #10: 63 80 79 77 73 70 71 76 78 81
Cost 821.745826